models/automatark25/complexnew/instance2518.smt2
(declare-const X String)
; (SELECT\s[\w\*\)\(\,\s]+\sFROM\s[\w]+)|
(assert (str.in.re X (re.union (re.++ (str.to.re "SELECT") (re.union (str.to.re " ") (str.to.re "\x09") (str.to.re "\x0a") (str.to.re "\x0c") (str.to.re "\x0d")) (re.+ (re.union (str.to.re "*") (str.to.re ")") (str.to.re "(") (str.to.re ",") (re.range "0" "9") (re.range "A" "Z") (re.range "a" "z") (str.to.re "_") (str.to.re " ") (str.to.re "\x09") (str.to.re "\x0a") (str.to.re "\x0c") (str.to.re "\x0d"))) (re.union (str.to.re " ") (str.to.re "\x09") (str.to.re "\x0a") (str.to.re "\x0c") (str.to.re "\x0d")) (str.to.re "FROM") (re.union (str.to.re " ") (str.to.re "\x09") (str.to.re "\x0a") (str.to.re "\x0c") (str.to.re "\x0d")) (re.+ (re.union (re.range "0" "9") (re.range "A" "Z") (re.range "a" "z") (str.to.re "_")))) (str.to.re "\x0a"))))
; ^(20|23|27|30|33)-[0-9]{8}-[0-9]$
(assert (not (str.in.re X (re.++ (re.union (str.to.re "20") (str.to.re "23") (str.to.re "27") (str.to.re "30") (str.to.re "33")) (str.to.re "-") ((_ re.loop 8 8) (re.range "0" "9")) (str.to.re "-") (re.range "0" "9") (str.to.re "\x0a")))))
; ^([Aa][LKSZRAEPlkszraep]|[Cc][AOTaot]|[Dd][ECec]|[Ff][LMlm]|[Gg][AUau]|[Hh][Ii]|[Ii][ADLNadln]|[Kk][SYsy]|[Ll][Aa]|[Mm][ADEHINOPSTadehinopst]|[Nn][CDEHJMVYcdehjmvy]|[Oo][HKRhkr]|[Pp][ARWarw]|[Rr][Ii]|[Ss][CDcd]|[Tt][NXnx]|[Uu][Tt]|[Vv][AITait]|[Ww][AIVYaivy])$
(assert (not (str.in.re X (re.++ (re.union (re.++ (re.union (str.to.re "A") (str.to.re "a")) (re.union (str.to.re "L") (str.to.re "K") (str.to.re "S") (str.to.re "Z") (str.to.re "R") (str.to.re "A") (str.to.re "E") (str.to.re "P") (str.to.re "l") (str.to.re "k") (str.to.re "s") (str.to.re "z") (str.to.re "r") (str.to.re "a") (str.to.re "e") (str.to.re "p"))) (re.++ (re.union (str.to.re "C") (str.to.re "c")) (re.union (str.to.re "A") (str.to.re "O") (str.to.re "T") (str.to.re "a") (str.to.re "o") (str.to.re "t"))) (re.++ (re.union (str.to.re "D") (str.to.re "d")) (re.union (str.to.re "E") (str.to.re "C") (str.to.re "e") (str.to.re "c"))) (re.++ (re.union (str.to.re "F") (str.to.re "f")) (re.union (str.to.re "L") (str.to.re "M") (str.to.re "l") (str.to.re "m"))) (re.++ (re.union (str.to.re "G") (str.to.re "g")) (re.union (str.to.re "A") (str.to.re "U") (str.to.re "a") (str.to.re "u"))) (re.++ (re.union (str.to.re "H") (str.to.re "h")) (re.union (str.to.re "I") (str.to.re "i"))) (re.++ (re.union (str.to.re "I") (str.to.re "i")) (re.union (str.to.re "A") (str.to.re "D") (str.to.re "L") (str.to.re "N") (str.to.re "a") (str.to.re "d") (str.to.re "l") (str.to.re "n"))) (re.++ (re.union (str.to.re "K") (str.to.re "k")) (re.union (str.to.re "S") (str.to.re "Y") (str.to.re "s") (str.to.re "y"))) (re.++ (re.union (str.to.re "L") (str.to.re "l")) (re.union (str.to.re "A") (str.to.re "a"))) (re.++ (re.union (str.to.re "M") (str.to.re "m")) (re.union (str.to.re "A") (str.to.re "D") (str.to.re "E") (str.to.re "H") (str.to.re "I") (str.to.re "N") (str.to.re "O") (str.to.re "P") (str.to.re "S") (str.to.re "T") (str.to.re "a") (str.to.re "d") (str.to.re "e") (str.to.re "h") (str.to.re "i") (str.to.re "n") (str.to.re "o") (str.to.re "p") (str.to.re "s") (str.to.re "t"))) (re.++ (re.union (str.to.re "N") (str.to.re "n")) (re.union (str.to.re "C") (str.to.re "D") (str.to.re "E") (str.to.re "H") (str.to.re "J") (str.to.re "M") (str.to.re "V") (str.to.re "Y") (str.to.re "c") (str.to.re "d") (str.to.re "e") (str.to.re "h") (str.to.re "j") (str.to.re "m") (str.to.re "v") (str.to.re "y"))) (re.++ (re.union (str.to.re "O") (str.to.re "o")) (re.union (str.to.re "H") (str.to.re "K") (str.to.re "R") (str.to.re "h") (str.to.re "k") (str.to.re "r"))) (re.++ (re.union (str.to.re "P") (str.to.re "p")) (re.union (str.to.re "A") (str.to.re "R") (str.to.re "W") (str.to.re "a") (str.to.re "r") (str.to.re "w"))) (re.++ (re.union (str.to.re "R") (str.to.re "r")) (re.union (str.to.re "I") (str.to.re "i"))) (re.++ (re.union (str.to.re "S") (str.to.re "s")) (re.union (str.to.re "C") (str.to.re "D") (str.to.re "c") (str.to.re "d"))) (re.++ (re.union (str.to.re "T") (str.to.re "t")) (re.union (str.to.re "N") (str.to.re "X") (str.to.re "n") (str.to.re "x"))) (re.++ (re.union (str.to.re "U") (str.to.re "u")) (re.union (str.to.re "T") (str.to.re "t"))) (re.++ (re.union (str.to.re "V") (str.to.re "v")) (re.union (str.to.re "A") (str.to.re "I") (str.to.re "T") (str.to.re "a") (str.to.re "i") (str.to.re "t"))) (re.++ (re.union (str.to.re "W") (str.to.re "w")) (re.union (str.to.re "A") (str.to.re "I") (str.to.re "V") (str.to.re "Y") (str.to.re "a") (str.to.re "i") (str.to.re "v") (str.to.re "y")))) (str.to.re "\x0a")))))
; ((DK|FI|HU|LU|MT|SI)(-)?\d{8})|((BE|EE|DE|EL|LT|PT)(-)?\d{9})|((PL|SK)(-)?\d{10})|((IT|LV)(-)?\d{11})|((LT|SE)(-)?\d{12})|(AT(-)?U\d{8})|(CY(-)?\d{8}[A-Z])|(CZ(-)?\d{8,10})|(FR(-)?[\dA-HJ-NP-Z]{2}\d{9})|(IE(-)?\d[A-Z\d]\d{5}[A-Z])|(NL(-)?\d{9}B\d{2})|(ES(-)?[A-Z\d]\d{7}[A-Z\d])
(assert (not (str.in.re X (re.union (re.++ (re.union (str.to.re "DK") (str.to.re "FI") (str.to.re "HU") (str.to.re "LU") (str.to.re "MT") (str.to.re "SI")) (re.opt (str.to.re "-")) ((_ re.loop 8 8) (re.range "0" "9"))) (re.++ (re.union (str.to.re "BE") (str.to.re "EE") (str.to.re "DE") (str.to.re "EL") (str.to.re "LT") (str.to.re "PT")) (re.opt (str.to.re "-")) ((_ re.loop 9 9) (re.range "0" "9"))) (re.++ (re.union (str.to.re "PL") (str.to.re "SK")) (re.opt (str.to.re "-")) ((_ re.loop 10 10) (re.range "0" "9"))) (re.++ (re.union (str.to.re "IT") (str.to.re "LV")) (re.opt (str.to.re "-")) ((_ re.loop 11 11) (re.range "0" "9"))) (re.++ (re.union (str.to.re "LT") (str.to.re "SE")) (re.opt (str.to.re "-")) ((_ re.loop 12 12) (re.range "0" "9"))) (re.++ (str.to.re "AT") (re.opt (str.to.re "-")) (str.to.re "U") ((_ re.loop 8 8) (re.range "0" "9"))) (re.++ (str.to.re "CY") (re.opt (str.to.re "-")) ((_ re.loop 8 8) (re.range "0" "9")) (re.range "A" "Z")) (re.++ (str.to.re "CZ") (re.opt (str.to.re "-")) ((_ re.loop 8 10) (re.range "0" "9"))) (re.++ (str.to.re "FR") (re.opt (str.to.re "-")) ((_ re.loop 2 2) (re.union (re.range "0" "9") (re.range "A" "H") (re.range "J" "N") (re.range "P" "Z"))) ((_ re.loop 9 9) (re.range "0" "9"))) (re.++ (str.to.re "IE") (re.opt (str.to.re "-")) (re.range "0" "9") (re.union (re.range "A" "Z") (re.range "0" "9")) ((_ re.loop 5 5) (re.range "0" "9")) (re.range "A" "Z")) (re.++ (str.to.re "NL") (re.opt (str.to.re "-")) ((_ re.loop 9 9) (re.range "0" "9")) (str.to.re "B") ((_ re.loop 2 2) (re.range "0" "9"))) (re.++ (str.to.re "\x0aES") (re.opt (str.to.re "-")) (re.union (re.range "A" "Z") (re.range "0" "9")) ((_ re.loop 7 7) (re.range "0" "9")) (re.union (re.range "A" "Z") (re.range "0" "9")))))))
; /^\/[a-z]{5}\.php\?id=0\d{5}111D30[a-zA-Z0-9]{6}$/Ui
(assert (not (str.in.re X (re.++ (str.to.re "//") ((_ re.loop 5 5) (re.range "a" "z")) (str.to.re ".php?id=0") ((_ re.loop 5 5) (re.range "0" "9")) (str.to.re "111D30") ((_ re.loop 6 6) (re.union (re.range "a" "z") (re.range "A" "Z") (re.range "0" "9"))) (str.to.re "/Ui\x0a")))))
(check-sat)
